* SDPA sparse format data
* File name = Bex9_2_8.dat-s
* mDim =  19, nBlock =  9
* size of bVect = 1 *  19
* size of sparseMatrix =  212 * 5
 19
  9
-40 -8  4  4  4  4  4  4  4 
   1.0000000000    0.0000000000    0.0000000000    0.0000000000    0.0000000000    0.0000000000    0.0000000000    0.0000000000    0.0000000000    0.0000000000    0.0000000000    0.0000000000    0.0000000000    0.0000000000    0.0000000000    0.0000000000    0.0000000000    0.0000000000    0.0000000000 
  1   1   1   1   -1.0000000000
  2   1   1   1    1.0000000000
  4   1   2   2   -1.0000000000
  5   1   2   2    1.0000000000
  5   1   3   3   -1.0000000000
  7   1   3   3    1.0000000000
  6   1   4   4   -1.0000000000
  8   1   4   4    1.0000000000
 10   1   5   5   -1.0000000000
 11   1   5   5    1.0000000000
 11   1   6   6   -1.0000000000
 13   1   6   6    1.0000000000
 12   1   7   7   -1.0000000000
 14   1   7   7    1.0000000000
 13   1   8   8   -1.0000000000
 16   1   8   8    1.0000000000
 14   1   9   9   -1.0000000000
 17   1   9   9    1.0000000000
 15   1  10  10   -1.0000000000
 18   1  10  10    1.0000000000
  0   1  11  11    0.0500000000
  1   1  11  11    1.0000000000
  3   1  11  11    1.0000000000
  1   1  12  12   -0.0500000000
  4   1  12  12    1.0000000000
  6   1  12  12    1.0000000000
  2   1  13  13   -0.0500000000
  5   1  13  13    1.0000000000
  8   1  13  13    1.0000000000
  3   1  14  14   -0.0500000000
  6   1  14  14    1.0000000000
  9   1  14  14    1.0000000000
  4   1  15  15   -0.0500000000
 10   1  15  15    1.0000000000
 12   1  15  15    1.0000000000
  5   1  16  16   -0.0500000000
 11   1  16  16    1.0000000000
 14   1  16  16    1.0000000000
  6   1  17  17   -0.0500000000
 12   1  17  17    1.0000000000
 15   1  17  17    1.0000000000
  7   1  18  18   -0.0500000000
 13   1  18  18    1.0000000000
 17   1  18  18    1.0000000000
  8   1  19  19   -0.0500000000
 14   1  19  19    1.0000000000
 18   1  19  19    1.0000000000
  9   1  20  20   -0.0500000000
 15   1  20  20    1.0000000000
 19   1  20  20    1.0000000000
  1   1  21  21    1.0000000000
  2   1  21  21   -1.0000000000
  4   1  22  22    1.0000000000
  5   1  22  22   -1.0000000000
  5   1  23  23    1.0000000000
  7   1  23  23   -1.0000000000
  6   1  24  24    1.0000000000
  8   1  24  24   -1.0000000000
 10   1  25  25    1.0000000000
 11   1  25  25   -1.0000000000
 11   1  26  26    1.0000000000
 13   1  26  26   -1.0000000000
 12   1  27  27    1.0000000000
 14   1  27  27   -1.0000000000
 13   1  28  28    1.0000000000
 16   1  28  28   -1.0000000000
 14   1  29  29    1.0000000000
 17   1  29  29   -1.0000000000
 15   1  30  30    1.0000000000
 18   1  30  30   -1.0000000000
  0   1  31  31   -0.0500000000
  1   1  31  31   -1.0000000000
  3   1  31  31   -1.0000000000
  1   1  32  32    0.0500000000
  4   1  32  32   -1.0000000000
  6   1  32  32   -1.0000000000
  2   1  33  33    0.0500000000
  5   1  33  33   -1.0000000000
  8   1  33  33   -1.0000000000
  3   1  34  34    0.0500000000
  6   1  34  34   -1.0000000000
  9   1  34  34   -1.0000000000
  4   1  35  35    0.0500000000
 10   1  35  35   -1.0000000000
 12   1  35  35   -1.0000000000
  5   1  36  36    0.0500000000
 11   1  36  36   -1.0000000000
 14   1  36  36   -1.0000000000
  6   1  37  37    0.0500000000
 12   1  37  37   -1.0000000000
 15   1  37  37   -1.0000000000
  7   1  38  38    0.0500000000
 13   1  38  38   -1.0000000000
 17   1  38  38   -1.0000000000
  8   1  39  39    0.0500000000
 14   1  39  39   -1.0000000000
 18   1  39  39   -1.0000000000
  9   1  40  40    0.0500000000
 15   1  40  40   -1.0000000000
 19   1  40  40   -1.0000000000
  5   2   1   1    1.0000000000
  6   2   2   2    1.0000000000
  8   2   3   3    1.0000000000
 14   2   4   4    1.0000000000
  4   2   5   5   -1.0000000000
  0   2   5   5   -1.0000000000
  7   2   6   6   -1.0000000000
  0   2   6   6   -1.0000000000
  9   2   7   7   -1.0000000000
  0   2   7   7   -1.0000000000
 14   2   8   8   -1.0000000000
  0   2   8   8   -1.0000000000
  0   3   1   1   -1.0000000000
  1   3   1   2    1.0000000000
  2   3   1   3    1.0000000000
  3   3   1   4    1.0000000000
  4   3   2   2    1.0000000000
  5   3   2   3    1.0000000000
  6   3   2   4    1.0000000000
  7   3   3   3    1.0000000000
  8   3   3   4    1.0000000000
  9   3   4   4    1.0000000000
  1   4   1   1    1.0000000000
  4   4   1   2    1.0000000000
  5   4   1   3    1.0000000000
  6   4   1   4    1.0000000000
 10   4   2   2    1.0000000000
 11   4   2   3    1.0000000000
 12   4   2   4    1.0000000000
 13   4   3   3    1.0000000000
 14   4   3   4    1.0000000000
 15   4   4   4    1.0000000000
  2   5   1   1    1.0000000000
  5   5   1   2    1.0000000000
  7   5   1   3    1.0000000000
  8   5   1   4    1.0000000000
 11   5   2   2    1.0000000000
 13   5   2   3    1.0000000000
 14   5   2   4    1.0000000000
 16   5   3   3    1.0000000000
 17   5   3   4    1.0000000000
 18   5   4   4    1.0000000000
  3   6   1   1    1.0000000000
  6   6   1   2    1.0000000000
  8   6   1   3    1.0000000000
  9   6   1   4    1.0000000000
 12   6   2   2    1.0000000000
 14   6   2   3    1.0000000000
 15   6   2   4    1.0000000000
 17   6   3   3    1.0000000000
 18   6   3   4    1.0000000000
 19   6   4   4    1.0000000000
  0   7   1   1   -1.0000000000
  1   7   1   1   -1.0000000000
  1   7   1   2    1.0000000000
  4   7   1   2   -1.0000000000
  2   7   1   3    1.0000000000
  5   7   1   3   -1.0000000000
  3   7   1   4    1.0000000000
  6   7   1   4   -1.0000000000
  4   7   2   2    1.0000000000
 10   7   2   2   -1.0000000000
  5   7   2   3    1.0000000000
 11   7   2   3   -1.0000000000
  6   7   2   4    1.0000000000
 12   7   2   4   -1.0000000000
  7   7   3   3    1.0000000000
 13   7   3   3   -1.0000000000
  8   7   3   4    1.0000000000
 14   7   3   4   -1.0000000000
  9   7   4   4    1.0000000000
 15   7   4   4   -1.0000000000
  0   8   1   1   -1.0000000000
  2   8   1   1   -1.0000000000
  1   8   1   2    1.0000000000
  5   8   1   2   -1.0000000000
  2   8   1   3    1.0000000000
  7   8   1   3   -1.0000000000
  3   8   1   4    1.0000000000
  8   8   1   4   -1.0000000000
  4   8   2   2    1.0000000000
 11   8   2   2   -1.0000000000
  5   8   2   3    1.0000000000
 13   8   2   3   -1.0000000000
  6   8   2   4    1.0000000000
 14   8   2   4   -1.0000000000
  7   8   3   3    1.0000000000
 16   8   3   3   -1.0000000000
  8   8   3   4    1.0000000000
 17   8   3   4   -1.0000000000
  9   8   4   4    1.0000000000
 18   8   4   4   -1.0000000000
  0   9   1   1   -1.0000000000
  3   9   1   1   -1.0000000000
  1   9   1   2    1.0000000000
  6   9   1   2   -1.0000000000
  2   9   1   3    1.0000000000
  8   9   1   3   -1.0000000000
  3   9   1   4    1.0000000000
  9   9   1   4   -1.0000000000
  4   9   2   2    1.0000000000
 12   9   2   2   -1.0000000000
  5   9   2   3    1.0000000000
 14   9   2   3   -1.0000000000
  6   9   2   4    1.0000000000
 15   9   2   4   -1.0000000000
  7   9   3   3    1.0000000000
 17   9   3   3   -1.0000000000
  8   9   3   4    1.0000000000
 18   9   3   4   -1.0000000000
  9   9   4   4    1.0000000000
 19   9   4   4   -1.0000000000
